17	4	3
18	25	18	12	22	14	22	
0	0	0	0	0	9	1	6	8	9	2	3	2	3	4
10	0	0	0	7	5	5	3	9	2	9	1	17
6	0	4	0	0	4	2	7	8	4	9	2	5	17
2	6	0	0	0	2	6	8	7	9	1	3	6	8	17
9	0	0	10	0	6	3	8	7	6	7	2	10	17
175	0	10	0	0	2	4	8	7	2	6	3	7	9	17
175	0	9	0	0	9	6	1	2	5	3	2	10	17
225	0	0	3	0	1	9	4	7	7	8	1	11
100	0	0	0	3	5	8	4	2	5	2	3	13	14	17
50	0	0	5	0	3	10	4	1	7	10	2	13	17
75	0	0	5	0	8	8	4	5	5	5	2	12	17
250	0	9	0	0	1	3	1	1	4	6	3	13	16	17
7	0	0	0	2	4	5	4	8	1	1	1	17
4	0	0	3	0	5	6	9	8	7	4	2	15	17
6	0	4	0	0	10	10	4	3	10	10	1	17
6	9	0	0	0	3	8	8	6	2	2	1	17
0	0	0	0	0	10	2	5	1	3	9	0
